
<<< setup


<<< generate

Version identifier: 22.1.0.0 | 2022-03-09 | 1a383f8ce
Tried aggregator 1 time.
MIP Presolve eliminated 210 rows and 441 columns.
Reduced MIP has 694 rows, 8821 columns, and 46253 nonzeros.
Reduced MIP has 8820 binaries, 1 generals, 0 SOSs, and 0 indicators.
Presolve time = 0,02 sec. (27,03 ticks)
Tried aggregator 1 time.
Detecting symmetries...
Reduced MIP has 694 rows, 8821 columns, and 46253 nonzeros.
Reduced MIP has 8820 binaries, 1 generals, 0 SOSs, and 0 indicators.
Presolve time = 0,02 sec. (25,96 ticks)
Probing time = 0,01 sec. (4,03 ticks)
Clique table members: 651.
MIP emphasis: balance optimality and feasibility.
MIP search method: dynamic search.
Parallel mode: deterministic, using up to 12 threads.
Root relaxation solution time = 0,25 sec. (392,43 ticks)

        Nodes                                         Cuts/
   Node  Left     Objective  IInf  Best Integer    Best Bound    ItCnt     Gap

      0     0     1165,0000   603                   1165,0000        9         
*     0+    0                         1165,0000     1165,0000             0,00%
      0     0        cutoff           1165,0000     1165,0000        9    0,00%
Elapsed time = 4,34 sec. (8008,85 ticks, tree = 0,01 MB, solutions = 1)

Root node processing (before b&c):
  Real time             =    4,34 sec. (8009,31 ticks)
Parallel b&c, 12 threads:
  Real time             =    0,00 sec. (0,00 ticks)
  Sync time (average)   =    0,00 sec.
  Wait time (average)   =    0,00 sec.
                          ------------
Total (root+branch&cut) =    4,34 sec. (8009,31 ticks)

<<< solve


OBJECTIVE: 1165
1 is free in round 3
1 plays 10 white matches, and 10 black matches
2 is free in round 14
2 plays 10 white matches, and 10 black matches
3 is free in round 5
3 plays 10 white matches, and 10 black matches
4 is free in round 15
4 plays 10 white matches, and 10 black matches
5 is free in round 8
5 plays 10 white matches, and 10 black matches
6 is free in round 20
6 plays 10 white matches, and 10 black matches
7 is free in round 2
7 plays 10 white matches, and 10 black matches
8 is free in round 1
8 plays 10 white matches, and 10 black matches
9 is free in round 12
9 plays 10 white matches, and 10 black matches
10 is free in round 7
10 plays 10 white matches, and 10 black matches
11 is free in round 18
11 plays 10 white matches, and 10 black matches
12 is free in round 4
12 plays 10 white matches, and 10 black matches
13 is free in round 17
13 plays 10 white matches, and 10 black matches
14 is free in round 6
14 plays 10 white matches, and 10 black matches
15 is free in round 16
15 plays 10 white matches, and 10 black matches
16 is free in round 21
16 plays 10 white matches, and 10 black matches
17 is free in round 13
17 plays 10 white matches, and 10 black matches
18 is free in round 10
18 plays 10 white matches, and 10 black matches
19 is free in round 11
19 plays 10 white matches, and 10 black matches
20 is free in round 19
20 plays 10 white matches, and 10 black matches
21 is free in round 9
21 plays 10 white matches, and 10 black matches
Slot 1
1 white, 12 black
2 white, 3 black
5 white, 18 black
6 white, 4 black
9 white, 15 black
14 white, 10 black
17 white, 13 black
19 white, 7 black
20 white, 16 black
21 white, 11 black

Slot 2
3 white, 17 black
4 white, 10 black
5 white, 8 black
6 white, 11 black
9 white, 1 black
12 white, 20 black
14 white, 2 black
16 white, 19 black
18 white, 15 black
21 white, 13 black

Slot 3
5 white, 16 black
10 white, 21 black
11 white, 2 black
12 white, 8 black
13 white, 9 black
15 white, 14 black
17 white, 7 black
18 white, 6 black
19 white, 3 black
20 white, 4 black

Slot 4
2 white, 7 black
3 white, 15 black
6 white, 14 black
8 white, 4 black
11 white, 5 black
13 white, 1 black
16 white, 17 black
18 white, 20 black
19 white, 10 black
21 white, 9 black

Slot 5
2 white, 19 black
4 white, 7 black
5 white, 21 black
8 white, 14 black
9 white, 16 black
10 white, 12 black
13 white, 6 black
15 white, 11 black
17 white, 18 black
20 white, 1 black

Slot 6
1 white, 8 black
2 white, 16 black
3 white, 11 black
4 white, 15 black
6 white, 21 black
7 white, 20 black
10 white, 9 black
17 white, 5 black
18 white, 12 black
19 white, 13 black

Slot 7
1 white, 14 black
2 white, 12 black
3 white, 21 black
5 white, 20 black
8 white, 7 black
11 white, 13 black
15 white, 17 black
16 white, 6 black
18 white, 9 black
19 white, 4 black

Slot 8
1 white, 21 black
2 white, 13 black
7 white, 18 black
9 white, 14 black
10 white, 8 black
11 white, 4 black
12 white, 6 black
16 white, 3 black
17 white, 19 black
20 white, 15 black

Slot 9
1 white, 15 black
3 white, 9 black
6 white, 10 black
8 white, 2 black
11 white, 7 black
12 white, 16 black
13 white, 20 black
17 white, 14 black
18 white, 4 black
19 white, 5 black

Slot 10
2 white, 1 black
11 white, 10 black
12 white, 3 black
14 white, 5 black
15 white, 6 black
16 white, 13 black
17 white, 4 black
19 white, 8 black
20 white, 9 black
21 white, 7 black

Slot 11
3 white, 6 black
4 white, 2 black
7 white, 5 black
10 white, 20 black
13 white, 8 black
14 white, 12 black
16 white, 1 black
17 white, 9 black
18 white, 11 black
21 white, 15 black

Slot 12
1 white, 5 black
2 white, 21 black
4 white, 13 black
6 white, 19 black
10 white, 3 black
11 white, 8 black
15 white, 7 black
16 white, 18 black
17 white, 12 black
20 white, 14 black

Slot 13
5 white, 2 black
7 white, 6 black
8 white, 21 black
9 white, 11 black
10 white, 1 black
12 white, 15 black
13 white, 3 black
16 white, 4 black
18 white, 14 black
19 white, 20 black

Slot 14
1 white, 3 black
4 white, 12 black
5 white, 13 black
6 white, 20 black
8 white, 17 black
9 white, 7 black
14 white, 16 black
15 white, 10 black
19 white, 11 black
21 white, 18 black

Slot 15
1 white, 17 black
5 white, 9 black
7 white, 3 black
8 white, 6 black
10 white, 18 black
11 white, 16 black
13 white, 12 black
14 white, 21 black
15 white, 19 black
20 white, 2 black

Slot 16
1 white, 19 black
3 white, 18 black
4 white, 9 black
6 white, 5 black
8 white, 16 black
12 white, 21 black
13 white, 10 black
14 white, 7 black
17 white, 2 black
20 white, 11 black

Slot 17
3 white, 8 black
6 white, 17 black
7 white, 1 black
9 white, 2 black
12 white, 11 black
14 white, 4 black
15 white, 5 black
16 white, 10 black
18 white, 19 black
21 white, 20 black

Slot 18
1 white, 6 black
5 white, 4 black
7 white, 13 black
8 white, 18 black
9 white, 12 black
10 white, 17 black
15 white, 2 black
19 white, 14 black
20 white, 3 black
21 white, 16 black

Slot 19
3 white, 5 black
4 white, 1 black
6 white, 9 black
7 white, 16 black
10 white, 2 black
12 white, 19 black
13 white, 18 black
14 white, 11 black
15 white, 8 black
21 white, 17 black

Slot 20
2 white, 18 black
4 white, 3 black
5 white, 10 black
7 white, 12 black
9 white, 8 black
11 white, 1 black
14 white, 13 black
16 white, 15 black
20 white, 17 black
21 white, 19 black

Slot 21
2 white, 6 black
3 white, 14 black
4 white, 21 black
7 white, 10 black
8 white, 20 black
9 white, 19 black
11 white, 17 black
12 white, 5 black
13 white, 15 black
18 white, 1 black


<<< post process


<<< done

